20	5
0	9	6	1	7	5	8	2	4	9	3
1	1	17
2	2	11	15
3	2	19	18
4	1	19
5	1	12
6	1	15
7	2	10	13
8	1	17
9	2	10	11
10	1	12
11	1	14
12	1	19
13	0
14	1	12
15	1	10
16	2	10	11
17	1	16
18	1	20
19	1	20
20	1	21
21	0
0	0	0	0	0	0	0
1	2	2	3	4	3	5
2	4	3	3	4	1	5
3	1	3	3	4	1	5
4	5	4	5	3	5	2
5	3	5	2	4	4	3
6	4	1	4	4	4	3
7	1	3	3	1	3	3
8	5	3	4	2	1	3
9	6	4	3	4	1	2
10	3	3	2	3	4	5
11	7	4	1	4	1	2
12	8	1	5	2	3	5
13	7	5	2	5	5	5
14	7	2	5	5	3	2
15	2	4	1	2	1	4
16	8	1	3	5	5	3
17	1	2	1	3	4	4
18	8	2	3	3	5	5
19	9	3	5	4	4	4
20	9	4	5	1	3	1
21	0	0	0	0	0	0
10	11	11	9	11
